NAME : XML100_3352_05
DIMENSION : 101
NB_CLUSTERS : 4
CLUSTERING_ALG : KMeans
CLUSTERING_PARAMS : k(3)
CLUSTERS
1 0
2 2 3 11 12 14 15 17 19 24 27 29 34 35 39 45 47 49 50 51 53 54 62 63 71 74 75 76 80 81 84 88 94
3 16 20 21 22 23 28 30 32 33 37 38 40 41 42 43 44 55 56 58 59 60 64 65 67 69 72 77 82 83 85 89 91 92 95 96 99
4 1 4 5 6 7 8 9 10 13 18 25 26 31 36 46 48 52 57 61 66 68 70 73 78 79 86 87 90 93 97 98 100
EOF